Mn3 Zn5 Fe16 O32
1.0
   8.4017914386954864    0.0000007478551468    0.0000007369101010
   0.0000007472504065    8.4074718400178092    0.0046910680935588
   0.0000007363058139    0.0046910680933636    8.4074718318152364
Fe Mn O Zn
16 3 32 5
direct
   0.3749764712846026    0.3759164413017845    0.6240846580491681 Fe
   0.3749764628608522    0.1240847031714838    0.8759164333578745 Fe
   0.1275628367246975    0.1235251079878459    0.6235251117170695 Fe
   0.8741087084019050    0.3765157676907238    0.1256261595294320 Fe
   0.6219192444364892    0.3758092391394379    0.3728706053199731 Fe
   0.6219200031059212    0.1241909699289473    0.1271289899701440 Fe
   0.1280198774742536    0.6245034834264290    0.1245034215322578 Fe
   0.3772638274095554    0.6261087253711597    0.3738910506434474 Fe
   0.1280192175022177    0.8754958833791886    0.3754958728515946 Fe
   0.8741086664133439    0.8743735922161777    0.6234838067278566 Fe
   0.8741088014690991    0.6256261736853821    0.8765157775906474 Fe
   0.6219193474894459    0.8728705725075255    0.8758092167708826 Fe
   0.8741086366621942    0.1234838046350750    0.3743735775003791 Fe
   0.3772637641672784    0.8738910183479565    0.1261087623527044 Fe
   0.1275627135444287    0.3764755005418258    0.8764754451425675 Fe
   0.6219199918398475    0.6271289828945036    0.6241909818331393 Fe
   0.9989405888700973    1.0001309906631530    0.9998697029101106 Mn
   0.9989406871131804    0.4998696762999768    0.5001310785332925 Mn
   0.7509508128680982    0.2500003259087258    0.7500003219690292 Mn
   0.8853564614862912    0.6162311377197692    0.1162311297612989 O
   0.1151734371571765    0.8839512963367192    0.6165927200728053 O
   0.6155363883231549    0.1145692267716581    0.8854310190676073 O
   0.3825411287443709    0.3840228735103424    0.3835631320334393 O
   0.3662640494807544    0.1345933452493365    0.6345933361967158 O
   0.6343772436705507    0.3653071103790400    0.1327771844528520 O
   0.8648036028648031    0.8648881201009769    0.8644793113966791 O
   0.1347732129471462    0.6350880151430677    0.3649108893147726 O
   0.3673107295595204    0.6329735850655331    0.1329736290829861 O
   0.1334629734836836    0.3643558070682558    0.6356419392442757 O
   0.6343766913834514    0.1346935297040652    0.3672228320133551 O
   0.8852236732650851    0.1148588516850684    0.6148588546582175 O
   0.6182950552332144    0.8840004513478240    0.1159984530019967 O
   0.1151722850834249    0.6160510734958834    0.8834084136792827 O
   0.1151723286779588    0.3834083967029810    0.1160510676990678 O
   0.6182949936164592    0.6159984230804160    0.3840004280195811 O
   0.3825410588756191    0.8835631027613309    0.8840228633715768 O
   0.6343767114394747    0.8672228269487811    0.6346935301927179 O
   0.8648035252086214    0.3644792658790497    0.3648880758475939 O
   0.1334629827743475    0.1356419494826167    0.8643557974391093 O
   0.1347731699183712    0.8649109377863116    0.1350879849412204 O
   0.6343772714237720    0.6327771987743136    0.8653071001802711 O
   0.6155362905431163    0.3854310619387766    0.6145692067929445 O
   0.1151734573208200    0.1165927146210429    0.3839512641565156 O
   0.3825417165829331    0.6164377119522813    0.6159768229418700 O
   0.8852215646142964    0.3851406388331742    0.8851406510058003 O
   0.8648026423111854    0.1355205782071722    0.1351119977608957 O
   0.3673093576875372    0.8670269882026740    0.3670270215301324 O
   0.8648025934617799    0.6351120228772750    0.6355206027044694 O
   0.3825417214063152    0.1159768692497217    0.1164377398090624 O
   0.8853561886059379    0.8837675830529248    0.3837675414330504 O
   0.3662672999506403    0.3654069106019217    0.8654069353686213 O
   0.5006951739345493    0.4985727498326543    0.9985728002464132 Zn
   0.5006938801293868    1.0014289010424935    0.5014288320544522 Zn
   0.2484627004251830    0.2499997940057354    0.2499995885543768 Zn
   0.2484626971646551    0.7499995552829192    0.7499998266719266 Zn
   0.7530730637369294    0.7499984360871484    0.2499984327675994 Zn
