Mn7 Zn1 Fe16 O32
1.0
   8.4567530473115458    0.0000000255333577    0.0000000132676805
   0.0000000255333696    8.4567530634594341    0.0000000468894963
   0.0000000132676749    0.0000000468894963    8.4567530673380009
Fe Mn O Zn
16 7 32 1
direct
   0.3738908456098228    0.3769467949623867    0.6261091645730690 Fe
   0.3738908588332445    0.1230531652426791    0.8738908237764196 Fe
   0.1261091195432507    0.1230531408246523    0.6261091266091060 Fe
   0.8760989207809600    0.3760988875115121    0.1239011474220875 Fe
   0.6239011259479931    0.3760988681631721    0.3760989018235246 Fe
   0.6239010900048199    0.1239010963282746    0.1239011085972757 Fe
   0.1261091571437996    0.6261091609682704    0.1230531613414096 Fe
   0.3738908909981781    0.6261091213165065    0.3769468011324919 Fe
   0.1261091393372739    0.8738908701832265    0.3769468142206235 Fe
   0.8769468268064096    0.8738908888150548    0.6261091360285297 Fe
   0.8769467770014904    0.6261091632213002    0.8738908326080376 Fe
   0.6230531673787649    0.8738908103297147    0.8738908305461698 Fe
   0.8760989354592948    0.1239011298501001    0.3760988585650796 Fe
   0.3738908688513659    0.8738908337439542    0.1230531709368567 Fe
   0.1261091366738683    0.3769468363562419    0.8738908803652428 Fe
   0.6230532209715122    0.6261091680739456    0.6261091481862816 Fe
   0.9993578175916545    1.0006421929195690    1.0006422796197949 Mn
   0.9993577794164878    0.4993577708207152    0.4993577848426646 Mn
   0.5006422104231611    0.4993577810353941    1.0006422623245521 Mn
   0.5006421735930806    1.0006422698474953    0.4993577778666314 Mn
   0.2499999788265906    0.2499999801490533    0.2500000496152476 Mn
   0.7500000160854158    0.2500000177683214    0.7499999513373443 Mn
   0.7500000195436022    0.7499999952708893    0.2500000340433118 Mn
   0.8858207432967344    0.6148660889319378    0.1141792425587649 O
   0.1163767292651974    0.8836232828952568    0.6163767033290579 O
   0.6141792538274068    0.1141792551581511    0.8851338407813605 O
   0.3851338575338407    0.3858207318338268    0.3858207532855333 O
   0.3650805119081209    0.1358020916242250    0.6349194938764317 O
   0.6362114294824042    0.3637886269802970    0.1362114808061660 O
   0.8641979667457514    0.8650804987541815    0.8650804913849967 O
   0.1349195074038745    0.6349195495240358    0.3641979117962476 O
   0.3650804630854589    0.6349195218022988    0.1358020475739246 O
   0.1349195477960022    0.3641979142255187    0.6349195215730843 O
   0.6362114246012952    0.1362114056413311    0.3637886247455583 O
   0.8858207664090806    0.1141792540297281    0.6148660582809240 O
   0.6141792636772403    0.8851338363204693    0.1141792695757213 O
   0.1163767384952955    0.6163767588295687    0.8836232482492198 O
   0.1148661008414331    0.3858207320478513    0.1141792756614520 O
   0.6141792503437764    0.6148661054783634    0.3858207425065208 O
   0.3836232125297115    0.8836232191780499    0.8836232256015678 O
   0.6358020693944914    0.8650804462014897    0.6349195057830186 O
   0.8637886211171603    0.3637885764307833    0.3637886327765060 O
   0.1349195109119234    0.1358020620621616    0.8650804857379805 O
   0.1349194977711247    0.8650804959826478    0.1358020953217189 O
   0.6358021105865069    0.6349195079423222    0.8650804901968375 O
   0.6141792061812339    0.3858207597835624    0.6148660966536624 O
   0.1148660487102687    0.1141792672797407    0.3858207117755340 O
   0.3836232340760266    0.6163767683182757    0.6163767844917549 O
   0.8858207317377237    0.3858207436032985    0.8851338558925569 O
   0.8637886251954585    0.1362114296482798    0.1362114346403462 O
   0.3650804813329672    0.8650804994829174    0.3641979391733047 O
   0.8641979163903628    0.6349195140676422    0.6349195427354211 O
   0.3851338232168194    0.1141792581730289    0.1141792577077152 O
   0.8858207560149178    0.8851339207926678    0.3858207244495379 O
   0.3650804780632683    0.3641979371436674    0.8650805009682480 O
   0.2499999976374801    0.7500000216896191    0.7499999880285947 Zn
