In2 F6
1.0
   4.8707718610606809   -0.0000956652297450    2.6544710011947665
   1.7111665140778776    4.5572569331139396    2.6563288672621916
   0.0010459005853870   -0.0003032005926696    5.7970002229804622
In F
2 6
direct
   0.3867052315792668    0.8095181417144559    0.8326390277691007 In
   0.8867548551640000    0.3094637422399254    0.3325813667575217 In
   0.2393959382953571    0.0596134523580861    0.0825843195727960 F
   0.5341839349308105    0.5593276414838783    0.5828079727587904 F
   0.7396165163551774    0.9564651602605798    0.5823573547197604 F
   0.1369499335826652    0.1619372139569602    0.5825635595569270 F
   0.6367466438344598    0.4567821396016668    0.0825355707263195 F
   0.0338649688282455    0.6625739840930711    0.0828390731374084 F
