In2 F6
1.0
   4.8982543945312500    0.0000000000000000    2.6690025329589839
   1.7204680720538190    4.5833301691662394    2.6716842651367183
   0.0000000000000000    0.0000000000000000    5.8306651115417480
In F
2 6
direct
   0.3867959082126617    0.8095245361328126    0.8327264785766602 In
   0.8865684270858765    0.3096616864204407    0.3326552808284760 In
   0.2408314496278763    0.0593555793166161    0.0825579762458802 F
   0.5329650044441222    0.5594788789749146    0.5827916860580445 F
   0.7410947680473328    0.9551075100898743    0.5821361541748048 F
   0.1365919411182404    0.1633736193180085    0.5821611285209656 F
   0.6370449662208556    0.4553390145301818    0.0827458426356317 F
   0.0323255583643913    0.6638406515121459    0.0831336975097657 F
