Cs1 B1 O2
1.0
   4.3675912121989731    0.0008179959910110    1.7891547363429021
   1.8180152266820131    3.9693266773998661    1.7920492946619346
  -0.0694394601349269   -0.0453574202390284    6.4286470168745158
Cs B O
1 1 2
direct
   0.2165076851378351    0.5874726168022547    0.1554321470541603 Cs
   0.7163232441179527    0.0870565659521823    0.6551439138648798 B
   0.6430034057314603    0.0141601079091691    0.8749227027739241 O
   0.7894810128847002    0.1599194996804263    0.4353566426379102 O
