Cs1 B1 O2
1.0
   3.9539657282825442    0.0015202893202158    1.6225026275225005
   1.6461914171079575    3.5921605045234308    1.6260062088941121
  -0.3982197755086909   -0.2558237032592157    6.6465739035378233
Cs B O
1 1 2
direct
   0.2162990492070060    0.5871297529753688    0.1553453280466940 Cs
   0.7163629727382842    0.0871840074477866    0.6550956382215311 B
   0.6482311587862002    0.0199990141294737    0.8607133918251465 O
   0.7844221704404947    0.1542960104078972    0.4497010483661626 O
