Mn2 Zn6 Fe16 O32
1.0
   8.5880983047770645    0.0000000000000000   -0.0053960620186129
  -0.0053994535299584    8.5880966074221750   -0.0053960620186129
   0.0000000000000000    0.0000000000000000    8.5881000000000007
Mn Zn Fe O
2 6 16 32
direct
   0.1332000000000000    0.1332000000000000    0.1332000000000000 Mn
   0.8668000000000000    0.8668000000000000    0.8668000000000000 Mn
   0.1249400000000001    0.6259700000000000    0.6259700000000000 Zn
   0.6259700000000000    0.1249400000000001    0.6259700000000000 Zn
   0.6259700000000000    0.6259700000000000    0.1249400000000001 Zn
   0.3740300000000000    0.8750599999999999    0.3740300000000000 Zn
   0.8750599999999999    0.3740300000000000    0.3740300000000000 Zn
   0.3740300000000000    0.3740300000000000    0.8750599999999999 Zn
   0.5000000000000000    0.5000000000000000    0.5000000000000000 Fe
   0.5068100000000000    0.2521900000000000    0.2521900000000000 Fe
   0.2521900000000000    0.5068100000000000    0.2521900000000000 Fe
   0.2521900000000000    0.2521900000000000    0.5068100000000000 Fe
   0.7478100000000000    0.4931900000000000    0.7478100000000000 Fe
   0.4931900000000000    0.7478100000000000    0.7478100000000000 Fe
   0.7478100000000000    0.7478100000000000    0.4931900000000000 Fe
   0.0000000000000000    0.0000000000000000    0.5000000000000000 Fe
   0.5000000000000000    0.0000000000000000    0.0000000000000000 Fe
   0.0000000000000000    0.5000000000000000    0.0000000000000000 Fe
   0.7501300000000000    0.0000000000000000    0.2498700000000000 Fe
   0.2498700000000000    0.7501300000000000    0.0000000000000000 Fe
   0.0000000000000000    0.2498700000000000    0.7501300000000000 Fe
   0.2498700000000000    0.0000000000000000    0.7501300000000000 Fe
   0.7501300000000000    0.2498700000000000    0.0000000000000000 Fe
   0.0000000000000000    0.7501300000000000    0.2498700000000000 Fe
   0.2358600000000000    0.5100899999999999    0.0145200000000001 O
   0.0145200000000001    0.2358600000000000    0.5100899999999999 O
   0.5100899999999999    0.0145200000000001    0.2358600000000000 O
   0.4899100000000000    0.7641400000000000    0.9854799999999999 O
   0.7641400000000000    0.9854799999999999    0.4899100000000000 O
   0.9854799999999999    0.4899100000000000    0.7641400000000000 O
   0.7641400000000000    0.4899100000000000    0.9854799999999999 O
   0.9854799999999999    0.7641400000000000    0.4899100000000000 O
   0.4899100000000000    0.9854799999999999    0.7641400000000000 O
   0.5100899999999999    0.2358600000000000    0.0145200000000001 O
   0.2358600000000000    0.0145200000000001    0.5100899999999999 O
   0.0145200000000001    0.5100899999999999    0.2358600000000000 O
   0.7400099999999999    0.2386300000000000    0.2386300000000000 O
   0.2386300000000000    0.7400099999999999    0.2386300000000000 O
   0.2386300000000000    0.2386300000000000    0.7400099999999999 O
   0.7613700000000000    0.2599900000000001    0.7613700000000000 O
   0.2599900000000001    0.7613700000000000    0.7613700000000000 O
   0.7613700000000000    0.7613700000000000    0.2599900000000001 O
   0.0076499999999999    0.0076500000000000    0.7317600000000000 O
   0.7317600000000000    0.0076499999999999    0.0076500000000000 O
   0.0076500000000000    0.7317600000000000    0.0076499999999999 O
   0.9923500000000000    0.9923500000000001    0.2682400000000000 O
   0.9923500000000001    0.2682400000000000    0.9923500000000000 O
   0.2682400000000000    0.9923500000000000    0.9923500000000001 O
   0.5112500000000000    0.7393300000000000    0.5112500000000000 O
   0.5112500000000000    0.5112500000000000    0.7393300000000000 O
   0.7393300000000000    0.5112500000000000    0.5112500000000000 O
   0.2606700000000000    0.4887500000000000    0.4887500000000000 O
   0.4887500000000000    0.4887500000000000    0.2606700000000000 O
   0.4887500000000000    0.2606700000000000    0.4887500000000000 O
   0.7305500000000000    0.7305500000000000    0.7305500000000000 O
   0.2694500000000000    0.2694500000000000    0.2694500000000000 O
