Mn4 Zn4 Fe16 O32
1.0
   8.4172460610847608   -0.0000000277411506   -0.0000000202161592
  -0.0000000277424782    8.4130388117183532   -0.0000000631926377
  -0.0000000202304860   -0.0000000631926498    8.4130387995644096
Fe Mn O Zn
16 4 32 4
direct
   0.3750000159651088    0.3776986301824518    0.6276986383408427 Fe
   0.3759686154974772    0.1269508288764001    0.8735099560264106 Fe
   0.1240314185935393    0.1269507266004578    0.6264900611970533 Fe
   0.8740314321630993    0.3764900298546598    0.1230491897719646 Fe
   0.6259685002244787    0.3764900505688402    0.3769507270779762 Fe
   0.6250000161291673    0.1279103418472649    0.1220896530299613 Fe
   0.1259685533145523    0.6235099375244271    0.1230492715129493 Fe
   0.3740314131660994    0.6235099410739207    0.3769507942737459 Fe
   0.1250000078264647    0.8720896244151873    0.3779103753970763 Fe
   0.8759685928436499    0.8730492084743714    0.6264900450142159 Fe
   0.8750000165637554    0.6223013630639234    0.8723013770961581 Fe
   0.6240314937615994    0.8730492814584021    0.8735099366306042 Fe
   0.8749999921851174    0.1279103993512249    0.3779104107920259 Fe
   0.3749999919999953    0.8720895923382095    0.1220896024493645 Fe
   0.1249999823568885    0.3776986441304320    0.8723013486209109 Fe
   0.6250000097268166    0.6223013363362518    0.6276986565327967 Fe
   0.9999998123241443    1.0000000373600162    1.0004721382540573 Mn
   0.4999999477152167    1.0000000230362063    0.4995278714242616 Mn
   0.2500001752377115    0.2495278838188502    0.2499999857328524 Mn
   0.7500000960685064    0.7504721454509820    0.2499999966153562 Mn
   0.8854193475071176    0.6157094922249956    0.1146070786675351 O
   0.1157757331231872    0.8854044023697959    0.6172660864350998 O
   0.6157757557322396    0.1145956376200270    0.8827339807651738 O
   0.3854193725823379    0.3842904894105296    0.3853929306692419 O
   0.3645806652941873    0.1353929108917666    0.6342904812228792 O
   0.6342242547497678    0.3672660069916167    0.1354043817726194 O
   0.8645805912464274    0.8646070905561781    0.8657094964271825 O
   0.1342242353928359    0.6327339115922069    0.3645956108984104 O
   0.3657756828405009    0.6327338358374828    0.1354044898926465 O
   0.1340967198330438    0.3662929735211642    0.6325298594274429 O
   0.6347859141371247    0.1356689665405155    0.3647378499428448 O
   0.8842243177438013    0.1145955104363543    0.6172661263265306 O
   0.6152141114384762    0.8852621706024567    0.1143310137799591 O
   0.1159032798898884    0.6174701001732975    0.8837070403619972 O
   0.1145804715985443    0.3842903109811316    0.1146072137070576 O
   0.6145805323663229    0.6157096247503543    0.3853927616837675 O
   0.3842243614280482    0.8854045156317590    0.8827338480684865 O
   0.6354195013342926    0.8646072557957075    0.6342903681428709 O
   0.8657756191329947    0.3672661111449926    0.3645954864024344 O
   0.1354195101623352    0.1353927725365089    0.8657096756073350 O
   0.1347859433807977    0.8643310468243909    0.1352620557785910 O
   0.6340967010455004    0.6337070219639155    0.8674701738884725 O
   0.6159032455563780    0.3825298481656186    0.6162929281263715 O
   0.1152139959889889    0.1147379468215129    0.3856689596300596 O
   0.3840968207681248    0.6174700292371988    0.6162930830472639 O
   0.8840968446592503    0.3825299929776040    0.8837069267084690 O
   0.8652135245767943    0.1356690648071165    0.1352617328338620 O
   0.3652136287681147    0.8643309112664148    0.3647382800857379 O
   0.8659031619533497    0.6337069008156577    0.6325299498502803 O
   0.3847864952212705    0.1147383015759657    0.1143309360944262 O
   0.8847863886908158    0.8852618149484003    0.3856691245164222 O
   0.3659031775193169    0.3662930830295838    0.8674700174004685 O
   0.9999999586725777    0.5000000643547529    0.4984124905376868 Zn
   0.5000000306265495    0.4999998399698997    1.0015875032347694 Zn
   0.2500000439152257    0.7515875040702201    0.7499999039015530 Zn
   0.7500000041707984    0.2484125057982439    0.7500001426193432 Zn
