Cs1 Yb1 F3
1.0
   4.6109246776340225   -0.0001245069883147    0.0004089393214272
   0.0007251867112739    4.6131335346223636    0.0002613647999636
  -0.0000700658881991   -0.0000453197489523    4.6122945483733782
Cs Yb F
1 1 3
direct
   0.8840116463023487    0.8158401354829332    0.7763780531650124 Cs
   0.3840553166172731    0.3158045114082665    0.2763526244755815 Yb
   0.8840310847987307    0.3159931807579049    0.2766417378887895 F
   0.3841766794999793    0.3155056773888978    0.7763447269297402 F
   0.3839294933786194    0.8157090581667994    0.2760567750459765 F
