Cs1 Yb1 F3
1.0
   4.5091228485107422    0.0000000000000000    0.0004685284511651
   0.0008310534200170    4.5134615133032421    0.0003000326687470
   0.0000000000000000    0.0000000000000000    4.5118174552917480
Cs Yb F
1 1 3
direct
   0.8839497566223145    0.8160389661788940    0.7764402031898497 Cs
   0.3840329051017761    0.3156434297561646    0.2763254940509796 Yb
   0.8840987086296080    0.3160587847232819    0.2767657041549683 F
   0.3842410743236542    0.3153515458106995    0.7763260602951050 F
   0.3838817775249482    0.8157598376274109    0.2759164571762084 F
