Na2 Cl2 O8
1.0
   5.4776460825895645   -0.0001006125194727    0.0057634066983284
  -2.7347558910857726    4.5345185351949064   -1.2590590207520393
   0.0003400951950619   -0.0296349689061603    6.4982241756329877
Na Cl O
2 2 8
direct
   0.2046528382114118    0.6416065659293870    0.9035134541827111 Na
   0.7050622448431114    0.6426537121884498    0.4041074267470579 Na
   0.0043809031994856    0.2407062339344822    0.2120426174535153 Cl
   0.4056271863179393    0.0447567784456637    0.5963679922062504 Cl
   0.5634664580653419    0.3611341049116586    0.6757705630473414 O
   0.8465275292447271    0.9243658179213472    0.1327122877112947 O
   0.1326767010947127    0.9252640352804818    0.6745432874587932 O
   0.2773221844666689    0.3602809091617636    0.1340671095937243 O
   0.3645143398223338    0.9617377234445155    0.3681660788046780 O
   0.5589233788221006    0.9253075349866779    0.6745899970131749 O
   0.0451695300589245    0.3238305554505044    0.4402604830313166 O
   0.8510345870202022    0.3601036558250080    0.1335995027775915 O
