SQS ZnMn conc=0.875 from bestsqs.out
1.0
      8.179200000     0.000000000     0.000000000
      0.000000000     8.179200000     0.000000000
      0.000000000     0.000000000     8.179200000
Fe Mn O Zn
16 1 32 7
Direct
      0.375000000     0.375000000     0.625000000
      0.375000000     0.125000000     0.875000000
      0.125000000     0.125000000     0.625000000
      0.875000000     0.375000000     0.125000000
      0.625000000     0.375000000     0.375000000
      0.625000000     0.125000000     0.125000000
      0.125000000     0.625000000     0.125000000
      0.375000000     0.625000000     0.375000000
      0.125000000     0.875000000     0.375000000
      0.875000000     0.875000000     0.625000000
      0.875000000     0.625000000     0.875000000
      0.625000000     0.875000000     0.875000000
      0.875000000     0.125000000     0.375000000
      0.375000000     0.875000000     0.125000000
      0.125000000     0.375000000     0.875000000
      0.625000000     0.625000000     0.625000000
      0.250000000     0.750000000     0.750000000
      0.888650000     0.611350000     0.111350000
      0.111350000     0.888650000     0.611350000
      0.611350000     0.111350000     0.888650000
      0.388650000     0.388650000     0.388650000
      0.361350000     0.138650000     0.638650000
      0.638650000     0.361350000     0.138650000
      0.861350000     0.861350000     0.861350000
      0.138650000     0.638650000     0.361350000
      0.361350000     0.638650000     0.138650000
      0.138650000     0.361350000     0.638650000
      0.638650000     0.138650000     0.361350000
      0.888650000     0.111350000     0.611350000
      0.611350000     0.888650000     0.111350000
      0.111350000     0.611350000     0.888650000
      0.111350000     0.388650000     0.111350000
      0.611350000     0.611350000     0.388650000
      0.388650000     0.888650000     0.888650000
      0.638650000     0.861350000     0.638650000
      0.861350000     0.361350000     0.361350000
      0.138650000     0.138650000     0.861350000
      0.138650000     0.861350000     0.138650000
      0.638650000     0.638650000     0.861350000
      0.611350000     0.388650000     0.611350000
      0.111350000     0.111350000     0.388650000
      0.388650000     0.611350000     0.611350000
      0.888650000     0.388650000     0.888650000
      0.861350000     0.138650000     0.138650000
      0.361350000     0.861350000     0.361350000
      0.861350000     0.638650000     0.638650000
      0.388650000     0.111350000     0.111350000
      0.888650000     0.888650000     0.388650000
      0.361350000     0.361350000     0.861350000
      1.000000000     1.000000000     1.000000000
      1.000000000     0.500000000     0.500000000
      0.500000000     0.500000000     1.000000000
      0.500000000     1.000000000     0.500000000
      0.250000000     0.250000000     0.250000000
      0.750000000     0.250000000     0.750000000
      0.750000000     0.750000000     0.250000000
