Fe16 Co8 O32
1.0
   8.4131580007094282   -0.0000000021218817   -0.0000000045528106
  -0.0000000021218755    8.4131579867380104   -0.0000000025863829
  -0.0000000045528136   -0.0000000025863895    8.4131579727365793
Fe Co O
16 8 32
direct
   0.1249999906890141    0.1249999835718877    0.6249999770702034 Fe3+
   0.1249999849900077    0.3750000257886160    0.8750000367757910 Fe3+
   0.8750000540325527    0.3750000312106362    0.1249999803900198 Fe3+
   0.8750000479682130    0.1249999592759228    0.3750000073236016 Fe3+
   0.1249999705669680    0.8750000170529743    0.3750000226972731 Fe3+
   0.1249999605571206    0.6249999713318857    0.1249999830312186 Fe3+
   0.8750000506540963    0.6249999754261035    0.8750000533150402 Fe3+
   0.8750000160854499    0.8749999965803154    0.6249999601624054 Fe3+
   0.6249999982170191    0.1249999847403887    0.1249999708523762 Fe3+
   0.3750000239270802    0.8750000407005394    0.1249999720738893 Fe3+
   0.3750000512773340    0.1249999691388900    0.8750000300064575 Fe3+
   0.6249999524932837    0.8750000394196182    0.8750000086232106 Fe3+
   0.3749999842298698    0.6249999971449924    0.3750000242967443 Fe3+
   0.3749999920480109    0.3750000201017448    0.6249999764553685 Fe3+
   0.6249999568757721    0.3750000214811090    0.3750000219049433 Fe3+
   0.6249999826103605    0.6250000308180023    0.6249999882274654 Fe3+
   0.0000000133915372    0.0000000198543179    0.0000000174480973 Co2+
   0.2499999976514204    0.2500000245789096    0.2500000125727089 Co2+
   0.0000000121978263    0.5000000272407928    0.5000000399188993 Co2+
   0.7499999898195788    0.2500000187353373    0.7500000013573617 Co2+
   0.2500000173669181    0.7499999843889639    0.7499999735595261 Co2+
   0.7499999904979419    0.7499999765373414    0.2500000005462959 Co2+
   0.5000000159338940    0.0000000053393578    0.5000000007816883 Co2+
   0.5000000158910184    0.4999999834815528    0.0000000144287655 Co2+
   0.1162286847021254    0.1162287009226027    0.3837713166921474 O2-
   0.1337712844173496    0.3662287087465542    0.6337712638994405 O2-
   0.8837712696887167    0.3837712717874533    0.8837712786277078 O2-
   0.8662286727327703    0.1337712876175273    0.1337712864982191 O2-
   0.1162287104460752    0.8837712948531273    0.6162287003830141 O2-
   0.1337712864733395    0.6337712927670560    0.3662287105639840 O2-
   0.8837712944020366    0.6162286973873327    0.1162286988177972 O2-
   0.8662287005497504    0.8662286992500439    0.8662286951520501 O2-
   0.3837712999190994    0.1162286931859591    0.1162286881735126 O2-
   0.6337712904548538    0.1337712925562021    0.3662287010636550 O2-
   0.8837712744942257    0.8837712835154925    0.3837712793672508 O2-
   0.1337712843029434    0.8662287037665072    0.1337712895199887 O2-
   0.6162287149710394    0.1162287016775075    0.8837712947394222 O2-
   0.3662286943386358    0.1337712898114547    0.6337712934208198 O2-
   0.1162286828501850    0.3837713260770975    0.1162286954126815 O2-
   0.3662287194396766    0.6337712893379632    0.1337712829894406 O2-
   0.3837712881115616    0.8837712802109050    0.8837712834092903 O2-
   0.1337712665644268    0.1337712931584236    0.8662287122102719 O2-
   0.6337713027065871    0.3662287053634827    0.1337712764245400 O2-
   0.3662287267211528    0.8662286829474296    0.3662286997666240 O2-
   0.1162287036233471    0.6162286948658888    0.8837712887459367 O2-
   0.3837713211049380    0.3837713201268196    0.3837713284311805 O2-
   0.3662287092410378    0.3662287240422624    0.8662286938251155 O2-
   0.8837713006481012    0.1162287158194074    0.6162287084677490 O2-
   0.8662286800070828    0.3662287282672826    0.3662286989086407 O2-
   0.6162287148668640    0.8837712986240477    0.1162287170762743 O2-
   0.6162286912243207    0.6162286978905972    0.3837712993317065 O2-
   0.6337712971207928    0.8662286982169853    0.6337713063273278 O2-
   0.6162287146549930    0.3837712976735617    0.6162287091646580 O2-
   0.8662287181158526    0.6337712561963401    0.6337712562641582 O2-
   0.6337712875166380    0.6337712855221109    0.8662287208001879 O2-
   0.3837713031636761    0.6162286993570052    0.6162287097355075 O2-
