Fe16 Co8 O32
1.0
   8.1180313949744800   -0.0000000094268149   -0.0000000002861284
  -0.0000000094268174    8.1180313342172372    0.0000000087988304
  -0.0000000002861315    0.0000000087988106    8.1180313550758463
Fe Co O
16 8 32
direct
   0.1249999302471657    0.1249998965044166    0.6249999735430988 Fe3+
   0.1249999245235726    0.3750001203657704    0.8750000780561499 Fe3+
   0.8750000743945705    0.3750000967790685    0.1249999308925322 Fe3+
   0.8750000478730552    0.1249999529523850    0.3750000608241346 Fe3+
   0.1249999320097461    0.8750000388032786    0.3750001023570891 Fe3+
   0.1249999125661896    0.6249999264832575    0.1249998846356286 Fe3+
   0.8750000510820585    0.6249999688494883    0.8750000557502006 Fe3+
   0.8750000792566163    0.8750000086883418    0.6249999682301463 Fe3+
   0.6249999450354480    0.1249999212871468    0.1249999220007547 Fe3+
   0.3750000943577674    0.8750000721913088    0.1249999443444512 Fe3+
   0.3750000543509900    0.1249999412727949    0.8750000622443395 Fe3+
   0.6249999887399796    0.8750000252169429    0.8750000833002064 Fe3+
   0.3750000691382932    0.6250000115379591    0.3750000594907149 Fe3+
   0.3750000963289653    0.3750000579746490    0.6249999151900456 Fe3+
   0.6249999148230208    0.3750000796399692    0.3750000614321074 Fe3+
   0.6249999209140238    0.6249999445682156    0.6249999160466366 Fe3+
  -0.0000000273041193    0.0000000159808490   -0.0000000167188718 Co2+
   0.2500000223971096    0.2499999929286429    0.2499999825125230 Co2+
  -0.0000000405596115    0.4999999926486851    0.5000000532230613 Co2+
   0.7500000049711602    0.2499999890168385    0.7500000301382276 Co2+
   0.2500000384822549    0.7500000436672968    0.7500000001592719 Co2+
   0.7499999682142630    0.7500000008687204    0.2499999927129453 Co2+
   0.4999999988035025   -0.0000000011739220    0.4999999882455545 Co2+
   0.5000000100829949    0.5000000316318453    0.0000000155002205 Co2+
   0.1147275261631066    0.1147275542059319    0.3852724742363403 O2-
   0.1352723625524969    0.3647276011132550    0.6352723974399963 O2-
   0.8852724687868679    0.3852724613228567    0.8852724812119717 O2-
   0.8647275901243847    0.1352724115439147    0.1352724156243278 O2-
   0.1147274999913610    0.8852725398175696    0.6147275272324489 O2-
   0.1352724389926589    0.6352724009712417    0.3647275682328891 O2-
   0.8852724868866236    0.6147275042108683    0.1147275045061898 O2-
   0.8647275256611440    0.8647275314581661    0.8647275853974766 O2-
   0.3852724479922701    0.1147274854527816    0.1147275405173601 O2-
   0.6352724346165007    0.1352724076927609    0.3647276029387840 O2-
   0.8852724623667716    0.8852725153492830    0.3852724970479177 O2-
   0.1352724384294363    0.8647275747853876    0.1352723974147493 O2-
   0.6147275623728283    0.1147275020876395    0.8852724735680828 O2-
   0.3647275501525423    0.1352724052966245    0.6352724032764089 O2-
   0.1147275331582124    0.3852724614501558    0.1147274956651931 O2-
   0.3647276301892318    0.6352724094607515    0.1352724187551000 O2-
   0.3852724507047415    0.8852724488079294    0.8852724687310717 O2-
   0.1352723657376979    0.1352724041590774    0.8647275745997838 O2-
   0.6352724055490707    0.3647275984192054    0.1352724237162132 O2-
   0.3647276286851989    0.8647275595384444    0.3647275438881605 O2-
   0.1147274871633911    0.6147274716271017    0.8852725080617382 O2-
   0.3852724651872900    0.3852724488835768    0.3852724368413815 O2-
   0.3647275696335709    0.3647275915862351    0.8647275977669736 O2-
   0.8852725172573794    0.1147275163754501    0.6147275367503383 O2-
   0.8647276381992156    0.3647275712585216    0.3647275613467556 O2-
   0.6147275106128440    0.8852724864305982    0.1147275186423474 O2-
   0.6147275318980293    0.6147275124767431    0.3852724996356833 O2-
   0.6352724268748896    0.8647275615029918    0.6352724332366612 O2-
   0.6147275276116987    0.3852724975236101    0.6147275261599405 O2-
   0.8647275864218763    0.6352724383208901    0.6352724533791425 O2-
   0.6352724630025179    0.6352724548934487    0.8647275888843272 O2-
   0.3852724992967340    0.6147275475673989    0.6147275372514138 O2-
