&CONTROL
   calculation      = 'scf'
   verbosity        = 'high'
   tstress          = .true.
   tprnfor          = .true.
   outdir           = './out/'
   prefix           = 'aiida'
   etot_conv_thr    = 0.0056
   forc_conv_thr    = 0.001
   pseudo_dir       = './pseudos/'
/
&SYSTEM
   ibrav            = 0
   nat              = 56
   ntyp             = 4
   starting_magnetization(1) = 0.0
   starting_magnetization(2) = 0.0
   starting_magnetization(3) = 0.0
   starting_magnetization(4) = 0.0
   ecutwfc          = 90.0
   ecutrho          = 1080.0
   nosym            = .false.
   occupations      = 'smearing'
   degauss          = 0.0275
   smearing         = 'cold'
   nspin            = 2
/
&ELECTRONS
   electron_maxstep = 80
   conv_thr         = 2.24e-08
   mixing_beta      = 0.4
/
&IONS
/
&CELL
/
&FCP
/
&RISM
/
ATOMIC_SPECIES
Fe  55.845 Fe.pbe-spn-kjpaw_psl.1.0.0.UPF
Mn  54.938044 Mn.pbe-spn-kjpaw_psl.0.3.1.UPF
O  15.999 O.pbe-n-kjpaw_psl.1.0.0.UPF
Zn  65.38 Zn.pbe-dnl-kjpaw_psl.1.0.0.UPF

K_POINTS gamma

CELL_PARAMETERS angstrom
8.17920000000000 0.00000000000000 0.00000000000000
0.00000000000000 8.17920000000000 0.00000000000000
0.00000000000000 0.00000000000000 8.17920000000000

ATOMIC_POSITIONS angstrom
Fe  3.0672000000 3.0672000000 5.1120000000  
Fe  3.0672000000 1.0224000000 7.1568000000  
Fe  1.0224000000 1.0224000000 5.1120000000  
Fe  7.1568000000 3.0672000000 1.0224000000  
Fe  5.1120000000 3.0672000000 3.0672000000  
Fe  5.1120000000 1.0224000000 1.0224000000  
Fe  1.0224000000 5.1120000000 1.0224000000  
Fe  3.0672000000 5.1120000000 3.0672000000  
Fe  1.0224000000 7.1568000000 3.0672000000  
Fe  7.1568000000 7.1568000000 5.1120000000  
Fe  7.1568000000 5.1120000000 7.1568000000  
Fe  5.1120000000 7.1568000000 7.1568000000  
Fe  7.1568000000 1.0224000000 3.0672000000  
Fe  3.0672000000 7.1568000000 1.0224000000  
Fe  1.0224000000 3.0672000000 7.1568000000  
Fe  5.1120000000 5.1120000000 5.1120000000  
Mn  0.0000000000 0.0000000000 0.0000000000  
Mn  6.1344000000 6.1344000000 2.0448000000  
O  7.2684460800 5.0003539200 0.9107539200  
O  0.9107539200 7.2684460800 5.0003539200  
O  5.0003539200 0.9107539200 7.2684460800  
O  3.1788460800 3.1788460800 3.1788460800  
O  2.9555539200 1.1340460800 5.2236460800  
O  5.2236460800 2.9555539200 1.1340460800  
O  7.0451539200 7.0451539200 7.0451539200  
O  1.1340460800 5.2236460800 2.9555539200  
O  2.9555539200 5.2236460800 1.1340460800  
O  1.1340460800 2.9555539200 5.2236460800  
O  5.2236460800 1.1340460800 2.9555539200  
O  7.2684460800 0.9107539200 5.0003539200  
O  5.0003539200 7.2684460800 0.9107539200  
O  0.9107539200 5.0003539200 7.2684460800  
O  0.9107539200 3.1788460800 0.9107539200  
O  5.0003539200 5.0003539200 3.1788460800  
O  3.1788460800 7.2684460800 7.2684460800  
O  5.2236460800 7.0451539200 5.2236460800  
O  7.0451539200 2.9555539200 2.9555539200  
O  1.1340460800 1.1340460800 7.0451539200  
O  1.1340460800 7.0451539200 1.1340460800  
O  5.2236460800 5.2236460800 7.0451539200  
O  5.0003539200 3.1788460800 5.0003539200  
O  0.9107539200 0.9107539200 3.1788460800  
O  3.1788460800 5.0003539200 5.0003539200  
O  7.2684460800 3.1788460800 7.2684460800  
O  7.0451539200 1.1340460800 1.1340460800  
O  2.9555539200 7.0451539200 2.9555539200  
O  7.0451539200 5.2236460800 5.2236460800  
O  3.1788460800 0.9107539200 0.9107539200  
O  7.2684460800 7.2684460800 3.1788460800  
O  2.9555539200 2.9555539200 7.0451539200  
Zn  0.0000000000 4.0896000000 4.0896000000  
Zn  4.0896000000 4.0896000000 0.0000000000  
Zn  4.0896000000 0.0000000000 4.0896000000  
Zn  2.0448000000 2.0448000000 2.0448000000  
Zn  2.0448000000 6.1344000000 6.1344000000  
Zn  6.1344000000 2.0448000000 6.1344000000  

