&CONTROL
  calculation = 'scf'
  etot_conv_thr =   5.6000000000d-03
  forc_conv_thr =   1.0000000000d-03
  outdir = './out/'
  prefix = 'aiida'
  pseudo_dir = './pseudo/'
  tprnfor = .true.
  tstress = .true.
  verbosity = 'high'
/
&SYSTEM
  degauss =   2.7500000000d-02
  ecutrho =   1.0800000000d+03
  ecutwfc =   9.0000000000d+01
  ibrav = 0
  nat = 56
  nosym = .false.
  nspin = 2
  ntyp = 4
  occupations = 'smearing'
  smearing = 'cold'
  starting_magnetization(1) =   3.1250000000d-01
  starting_magnetization(2) =   3.3333333333d-01
  starting_magnetization(3) =   1.0000000000d-01
  starting_magnetization(4) =   1.0000000000d-01
/
&ELECTRONS
  conv_thr =   2.2400000000d-08
  electron_maxstep = 80
  mixing_beta =   4.0000000000d-01
/
ATOMIC_SPECIES
Fe     55.845 Fe.pbe-spn-kjpaw_psl.0.2.1.UPF
Mn     54.938045 mn_pbe_v1.5.uspp.F.UPF
O      15.9994 O.pbe-n-kjpaw_psl.0.1.UPF
Zn     65.38 Zn_pbe_v1.uspp.F.UPF
ATOMIC_POSITIONS crystal
Fe           0.3750000000       0.3750000000       0.6250000000
Fe           0.3750000000       0.1250000000       0.8750000000
Fe           0.1250000000       0.1250000000       0.6250000000
Fe           0.8750000000       0.3750000000       0.1250000000
Fe           0.6250000000       0.3750000000       0.3750000000
Fe           0.6250000000       0.1250000000       0.1250000000
Fe           0.1250000000       0.6250000000       0.1250000000
Fe           0.3750000000       0.6250000000       0.3750000000
Fe           0.1250000000       0.8750000000       0.3750000000
Fe           0.8750000000       0.8750000000       0.6250000000
Fe           0.8750000000       0.6250000000       0.8750000000
Fe           0.6250000000       0.8750000000       0.8750000000
Fe           0.8750000000       0.1250000000       0.3750000000
Fe           0.3750000000       0.8750000000       0.1250000000
Fe           0.1250000000       0.3750000000       0.8750000000
Fe           0.6250000000       0.6250000000       0.6250000000
Mn           0.0000000000       0.0000000000       0.0000000000
Mn           0.7500000000       0.7500000000       0.2500000000
O            0.8886500000       0.6113500000       0.1113500000
O            0.1113500000       0.8886500000       0.6113500000
O            0.6113500000       0.1113500000       0.8886500000
O            0.3886500000       0.3886500000       0.3886500000
O            0.3613500000       0.1386500000       0.6386500000
O            0.6386500000       0.3613500000       0.1386500000
O            0.8613500000       0.8613500000       0.8613500000
O            0.1386500000       0.6386500000       0.3613500000
O            0.3613500000       0.6386500000       0.1386500000
O            0.1386500000       0.3613500000       0.6386500000
O            0.6386500000       0.1386500000       0.3613500000
O            0.8886500000       0.1113500000       0.6113500000
O            0.6113500000       0.8886500000       0.1113500000
O            0.1113500000       0.6113500000       0.8886500000
O            0.1113500000       0.3886500000       0.1113500000
O            0.6113500000       0.6113500000       0.3886500000
O            0.3886500000       0.8886500000       0.8886500000
O            0.6386500000       0.8613500000       0.6386500000
O            0.8613500000       0.3613500000       0.3613500000
O            0.1386500000       0.1386500000       0.8613500000
O            0.1386500000       0.8613500000       0.1386500000
O            0.6386500000       0.6386500000       0.8613500000
O            0.6113500000       0.3886500000       0.6113500000
O            0.1113500000       0.1113500000       0.3886500000
O            0.3886500000       0.6113500000       0.6113500000
O            0.8886500000       0.3886500000       0.8886500000
O            0.8613500000       0.1386500000       0.1386500000
O            0.3613500000       0.8613500000       0.3613500000
O            0.8613500000       0.6386500000       0.6386500000
O            0.3886500000       0.1113500000       0.1113500000
O            0.8886500000       0.8886500000       0.3886500000
O            0.3613500000       0.3613500000       0.8613500000
Zn           0.0000000000       0.5000000000       0.5000000000
Zn           0.5000000000       0.5000000000       0.0000000000
Zn           0.5000000000       0.0000000000       0.5000000000
Zn           0.2500000000       0.2500000000       0.2500000000
Zn           0.2500000000       0.7500000000       0.7500000000
Zn           0.7500000000       0.2500000000       0.7500000000
K_POINTS automatic
3 3 3 0 0 0
CELL_PARAMETERS angstrom
      8.1792000000       0.0000000000       0.0000000000
      0.0000000000       8.1792000000       0.0000000000
      0.0000000000       0.0000000000       8.1792000000
