Mn6 Zn2 Fe16 O32
1.0
   8.3691875355874217   -0.0016790819540067    0.0016790792177333
  -0.0016790819612076    8.3691875257577468   -0.0016790561508938
   0.0016790792200463   -0.0016790561460238    8.3691875401735558
Fe Mn O Zn
16 6 32 2
direct
   0.3749999999107528    0.3768206028990511    0.6268205943892554 Fe
   0.3749999915074493    0.1250000158501196    0.8749999746658849 Fe
   0.1261293640263914    0.1235211893980182    0.6261293858579163 Fe
   0.8735211778059188    0.3761293572702259    0.1238706470368440 Fe
   0.6238706919389184    0.3761293307208686    0.3735211591842821 Fe
   0.6238706671065520    0.1264788307051405    0.1238706508362323 Fe
   0.1268206329883321    0.6250000441894971    0.1231793977031724 Fe
   0.3749999882721605    0.6250000257052339    0.3750000154382836 Fe
   0.1261293696672686    0.8738706713409795    0.3764787801240742 Fe
   0.8764787902347422    0.8738706275557180    0.6261293696266411 Fe
   0.8749999937144455    0.6249999809140221    0.8749999991200591 Fe
   0.6231793961093188    0.8731793797486421    0.8750000195432233 Fe
   0.8750000074323585    0.1249999861222168    0.3749999712423316 Fe
   0.3749999882366512    0.8731793974726751    0.1231794117996994 Fe
   0.1268206048178103    0.3768205900759798    0.8749999987480807 Fe
   0.6231793236042132    0.6249999836966120    0.6268205677693954 Fe
   0.9970073542302117    1.0029926088704391    1.0004503182661182 Mn
   0.9970073922020828    0.4995496930358501    0.4970073883214324 Mn
   0.5004503114139849    1.0029925983976287    0.4970073764351869 Mn
   0.2495496931740824    0.2470074059201094    0.2529926071335368 Mn
   0.7529926109093449    0.2470074232259754    0.7495497390634339 Mn
   0.7529926012761488    0.7504502865415020    0.2529925826874374 Mn
   0.8830901932700106    0.6047336669906900    0.1168819221469236 O
   0.1128573683377923    0.8871426553084444    0.6128573790933419 O
   0.6168819219162409    0.1169098051001634    0.8952663079728512 O
   0.3952662843921572    0.3831180812544849    0.3830902069121471 O
   0.3547336778105016    0.1330902418103955    0.6331180902373371 O
   0.6371426199045654    0.3628573676463961    0.1371426375064543 O
   0.8669097842610114    0.8668819094511655    0.8547336817802602 O
   0.1331181124434102    0.6452662923162699    0.3669097748751748 O
   0.3667694029378790    0.6332305942847171    0.1338803668376619 O
   0.1304161475698954    0.3548367946689817    0.6304161216339728 O
   0.6331521990470287    0.1433066961676760    0.3566933028922450 O
   0.8933067371750767    0.1066932911348262    0.6168477971303815 O
   0.6195838810487633    0.8951632034516197    0.1195838873650246 O
   0.1161196550510293    0.6167694166729686    0.8832305800197080 O
   0.1048367993317304    0.3804160899076990    0.1195838629778890 O
   0.6168819178665119    0.6047337089455066    0.3830902255033068 O
   0.3832305680190411    0.8838803308434762    0.8832305785096225 O
   0.6451632147908853    0.8695838666648168    0.6304161474052672 O
   0.8566932967705359    0.3668477838444417    0.3566932937534222 O
   0.1331180978592733    0.1330902257952457    0.8547336626336586 O
   0.1304161109354490    0.8695838943233527    0.1451632146854002 O
   0.6338803506173886    0.6332305923091502    0.8667694219765524 O
   0.6195838775987741    0.3804161016677867    0.6048368120418153 O
   0.1168477855444328    0.1066933103383775    0.3933066864248612 O
   0.3832306111214129    0.6167694267964217    0.6161196313692632 O
   0.8830902244075957    0.3831180898145142    0.8952663040290321 O
   0.8566933191485001    0.1433066721795064    0.1331522220726573 O
   0.3547336674915218    0.8668818708765540    0.3669097722231142 O
   0.8669097797984612    0.6452663146843081    0.6331181031721975 O
   0.3952663050935271    0.1169097888368414    0.1168819082303306 O
   0.8933066821476345    0.8831522170496362    0.3933066883269762 O
   0.3667694343662040    0.3661196625530702    0.8667694180418716 O
   0.5021367515627456    0.4978632524521803    1.0021367388199103 Zn
   0.2478632969769984    0.7521367469416804    0.7478632724182009 Zn
