SQS ZnMn conc=0.25 from bestsqs5.out
1.0
     16.358400000     0.000000000     0.000000000
      0.000000000    16.358400000     0.000000000
      0.000000000     0.000000000    16.358400000
Fe Mn O Zn
128 48 256 16
Direct
      0.187500000     0.687500000     0.812500000
      0.687500000     0.687500000     0.812500000
      0.187500000     0.187500000     0.812500000
      0.687500000     0.187500000     0.812500000
      0.187500000     0.687500000     0.312500000
      0.687500000     0.687500000     0.312500000
      0.187500000     0.187500000     0.312500000
      0.687500000     0.187500000     0.312500000
      0.187500000     0.062500000     0.437500000
      0.687500000     0.062500000     0.437500000
      0.187500000     0.562500000     0.437500000
      0.687500000     0.562500000     0.437500000
      0.187500000     0.062500000     0.937500000
      0.687500000     0.062500000     0.937500000
      0.187500000     0.562500000     0.937500000
      0.687500000     0.562500000     0.937500000
      0.062500000     0.062500000     0.312500000
      0.562500000     0.062500000     0.312500000
      0.062500000     0.562500000     0.312500000
      0.562500000     0.562500000     0.312500000
      0.062500000     0.062500000     0.812500000
      0.562500000     0.062500000     0.812500000
      0.062500000     0.562500000     0.812500000
      0.562500000     0.562500000     0.812500000
      0.437500000     0.187500000     0.062500000
      0.937500000     0.187500000     0.062500000
      0.437500000     0.687500000     0.062500000
      0.937500000     0.687500000     0.062500000
      0.437500000     0.187500000     0.562500000
      0.937500000     0.187500000     0.562500000
      0.437500000     0.687500000     0.562500000
      0.937500000     0.687500000     0.562500000
      0.812500000     0.187500000     0.687500000
      0.312500000     0.187500000     0.687500000
      0.812500000     0.687500000     0.687500000
      0.312500000     0.687500000     0.687500000
      0.812500000     0.187500000     0.187500000
      0.312500000     0.187500000     0.187500000
      0.812500000     0.687500000     0.187500000
      0.312500000     0.687500000     0.187500000
      0.812500000     0.062500000     0.562500000
      0.312500000     0.062500000     0.562500000
      0.812500000     0.562500000     0.562500000
      0.312500000     0.562500000     0.562500000
      0.812500000     0.062500000     0.062500000
      0.312500000     0.062500000     0.062500000
      0.812500000     0.562500000     0.062500000
      0.312500000     0.562500000     0.062500000
      0.062500000     0.312500000     0.062500000
      0.562500000     0.312500000     0.062500000
      0.062500000     0.812500000     0.062500000
      0.562500000     0.812500000     0.062500000
      0.062500000     0.312500000     0.562500000
      0.562500000     0.312500000     0.562500000
      0.062500000     0.812500000     0.562500000
      0.562500000     0.812500000     0.562500000
      0.687500000     0.312500000     0.687500000
      0.187500000     0.312500000     0.687500000
      0.687500000     0.812500000     0.687500000
      0.187500000     0.812500000     0.687500000
      0.687500000     0.312500000     0.187500000
      0.187500000     0.312500000     0.187500000
      0.687500000     0.812500000     0.187500000
      0.187500000     0.812500000     0.187500000
      0.562500000     0.437500000     0.687500000
      0.062500000     0.437500000     0.687500000
      0.562500000     0.937500000     0.687500000
      0.062500000     0.937500000     0.687500000
      0.562500000     0.437500000     0.187500000
      0.062500000     0.437500000     0.187500000
      0.562500000     0.937500000     0.187500000
      0.062500000     0.937500000     0.187500000
      0.937500000     0.437500000     0.812500000
      0.437500000     0.437500000     0.812500000
      0.937500000     0.937500000     0.812500000
      0.437500000     0.937500000     0.812500000
      0.937500000     0.437500000     0.312500000
      0.437500000     0.437500000     0.312500000
      0.937500000     0.937500000     0.312500000
      0.437500000     0.937500000     0.312500000
      0.937500000     0.812500000     0.437500000
      0.437500000     0.812500000     0.437500000
      0.937500000     0.312500000     0.437500000
      0.437500000     0.312500000     0.437500000
      0.937500000     0.812500000     0.937500000
      0.437500000     0.812500000     0.937500000
      0.937500000     0.312500000     0.937500000
      0.437500000     0.312500000     0.937500000
      0.812500000     0.937500000     0.437500000
      0.312500000     0.937500000     0.437500000
      0.812500000     0.437500000     0.437500000
      0.312500000     0.437500000     0.437500000
      0.812500000     0.937500000     0.937500000
      0.312500000     0.937500000     0.937500000
      0.812500000     0.437500000     0.937500000
      0.312500000     0.437500000     0.937500000
      0.437500000     0.562500000     0.687500000
      0.937500000     0.562500000     0.687500000
      0.437500000     0.062500000     0.687500000
      0.937500000     0.062500000     0.687500000
      0.437500000     0.562500000     0.187500000
      0.937500000     0.562500000     0.187500000
      0.437500000     0.062500000     0.187500000
      0.937500000     0.062500000     0.187500000
      0.687500000     0.437500000     0.562500000
      0.187500000     0.437500000     0.562500000
      0.687500000     0.937500000     0.562500000
      0.187500000     0.937500000     0.562500000
      0.687500000     0.437500000     0.062500000
      0.187500000     0.437500000     0.062500000
      0.687500000     0.937500000     0.062500000
      0.187500000     0.937500000     0.062500000
      0.562500000     0.687500000     0.437500000
      0.062500000     0.687500000     0.437500000
      0.562500000     0.187500000     0.437500000
      0.062500000     0.187500000     0.437500000
      0.562500000     0.687500000     0.937500000
      0.062500000     0.687500000     0.937500000
      0.562500000     0.187500000     0.937500000
      0.062500000     0.187500000     0.937500000
      0.812500000     0.812500000     0.312500000
      0.312500000     0.812500000     0.312500000
      0.812500000     0.312500000     0.312500000
      0.312500000     0.312500000     0.312500000
      0.812500000     0.812500000     0.812500000
      0.312500000     0.812500000     0.812500000
      0.812500000     0.312500000     0.812500000
      0.312500000     0.312500000     0.812500000
      1.000000000     0.500000000     1.000000000
      1.000000000     1.000000000     1.000000000
      0.500000000     1.000000000     1.000000000
      1.000000000     0.500000000     0.500000000
      1.000000000     1.000000000     0.500000000
      0.500000000     1.000000000     0.500000000
      1.000000000     0.250000000     0.250000000
      0.500000000     0.250000000     0.250000000
      0.500000000     0.750000000     0.250000000
      1.000000000     0.250000000     0.750000000
      1.000000000     0.750000000     0.750000000
      0.500000000     0.750000000     0.750000000
      0.250000000     0.250000000     0.500000000
      0.250000000     0.750000000     0.500000000
      0.750000000     0.750000000     0.500000000
      0.750000000     0.250000000     1.000000000
      0.250000000     0.750000000     1.000000000
      0.750000000     0.750000000     1.000000000
      0.250000000     1.000000000     0.250000000
      0.250000000     0.500000000     0.250000000
      0.250000000     1.000000000     0.750000000
      0.750000000     1.000000000     0.750000000
      0.250000000     0.500000000     0.750000000
      0.750000000     0.500000000     0.750000000
      0.625000000     0.125000000     0.125000000
      0.125000000     0.125000000     0.125000000
      0.625000000     0.625000000     0.125000000
      0.125000000     0.625000000     0.125000000
      0.125000000     0.125000000     0.625000000
      0.625000000     0.875000000     0.375000000
      0.125000000     0.875000000     0.375000000
      0.625000000     0.375000000     0.375000000
      0.125000000     0.375000000     0.375000000
      0.625000000     0.875000000     0.875000000
      0.125000000     0.875000000     0.875000000
      0.625000000     0.375000000     0.875000000
      0.125000000     0.375000000     0.875000000
      0.375000000     0.625000000     0.375000000
      0.375000000     0.125000000     0.375000000
      0.875000000     0.125000000     0.375000000
      0.375000000     0.625000000     0.875000000
      0.375000000     0.125000000     0.875000000
      0.875000000     0.125000000     0.875000000
      0.875000000     0.375000000     0.125000000
      0.375000000     0.375000000     0.125000000
      0.875000000     0.875000000     0.125000000
      0.875000000     0.875000000     0.625000000
      0.375000000     0.875000000     0.625000000
      0.444325000     0.305675000     0.055675000
      0.944325000     0.305675000     0.055675000
      0.444325000     0.805675000     0.055675000
      0.944325000     0.805675000     0.055675000
      0.444325000     0.305675000     0.555675000
      0.944325000     0.305675000     0.555675000
      0.444325000     0.805675000     0.555675000
      0.944325000     0.805675000     0.555675000
      0.055675000     0.444325000     0.305675000
      0.555675000     0.444325000     0.305675000
      0.055675000     0.944325000     0.305675000
      0.555675000     0.944325000     0.305675000
      0.055675000     0.444325000     0.805675000
      0.555675000     0.444325000     0.805675000
      0.055675000     0.944325000     0.805675000
      0.555675000     0.944325000     0.805675000
      0.305675000     0.055675000     0.444325000
      0.805675000     0.055675000     0.444325000
      0.305675000     0.555675000     0.444325000
      0.805675000     0.555675000     0.444325000
      0.305675000     0.055675000     0.944325000
      0.805675000     0.055675000     0.944325000
      0.305675000     0.555675000     0.944325000
      0.805675000     0.555675000     0.944325000
      0.194325000     0.194325000     0.194325000
      0.694325000     0.194325000     0.194325000
      0.194325000     0.694325000     0.194325000
      0.694325000     0.694325000     0.194325000
      0.194325000     0.194325000     0.694325000
      0.694325000     0.194325000     0.694325000
      0.194325000     0.694325000     0.694325000
      0.694325000     0.694325000     0.694325000
      0.180675000     0.069325000     0.319325000
      0.680675000     0.069325000     0.319325000
      0.180675000     0.569325000     0.319325000
      0.680675000     0.569325000     0.319325000
      0.180675000     0.069325000     0.819325000
      0.680675000     0.069325000     0.819325000
      0.180675000     0.569325000     0.819325000
      0.680675000     0.569325000     0.819325000
      0.319325000     0.180675000     0.069325000
      0.819325000     0.180675000     0.069325000
      0.319325000     0.680675000     0.069325000
      0.819325000     0.680675000     0.069325000
      0.319325000     0.180675000     0.569325000
      0.819325000     0.180675000     0.569325000
      0.319325000     0.680675000     0.569325000
      0.819325000     0.680675000     0.569325000
      0.430675000     0.430675000     0.430675000
      0.930675000     0.430675000     0.430675000
      0.430675000     0.930675000     0.430675000
      0.930675000     0.930675000     0.430675000
      0.430675000     0.430675000     0.930675000
      0.930675000     0.430675000     0.930675000
      0.430675000     0.930675000     0.930675000
      0.930675000     0.930675000     0.930675000
      0.069325000     0.319325000     0.180675000
      0.569325000     0.319325000     0.180675000
      0.069325000     0.819325000     0.180675000
      0.569325000     0.819325000     0.180675000
      0.069325000     0.319325000     0.680675000
      0.569325000     0.319325000     0.680675000
      0.069325000     0.819325000     0.680675000
      0.569325000     0.819325000     0.680675000
      0.180675000     0.319325000     0.069325000
      0.680675000     0.319325000     0.069325000
      0.180675000     0.819325000     0.069325000
      0.680675000     0.819325000     0.069325000
      0.180675000     0.319325000     0.569325000
      0.680675000     0.319325000     0.569325000
      0.180675000     0.819325000     0.569325000
      0.680675000     0.819325000     0.569325000
      0.069325000     0.180675000     0.319325000
      0.569325000     0.180675000     0.319325000
      0.069325000     0.680675000     0.319325000
      0.569325000     0.680675000     0.319325000
      0.069325000     0.180675000     0.819325000
      0.569325000     0.180675000     0.819325000
      0.069325000     0.680675000     0.819325000
      0.569325000     0.680675000     0.819325000
      0.319325000     0.069325000     0.180675000
      0.819325000     0.069325000     0.180675000
      0.319325000     0.569325000     0.180675000
      0.819325000     0.569325000     0.180675000
      0.319325000     0.069325000     0.680675000
      0.819325000     0.069325000     0.680675000
      0.319325000     0.569325000     0.680675000
      0.819325000     0.569325000     0.680675000
      0.444325000     0.055675000     0.305675000
      0.944325000     0.055675000     0.305675000
      0.444325000     0.555675000     0.305675000
      0.944325000     0.555675000     0.305675000
      0.444325000     0.055675000     0.805675000
      0.944325000     0.055675000     0.805675000
      0.444325000     0.555675000     0.805675000
      0.944325000     0.555675000     0.805675000
      0.305675000     0.444325000     0.055675000
      0.805675000     0.444325000     0.055675000
      0.305675000     0.944325000     0.055675000
      0.805675000     0.944325000     0.055675000
      0.305675000     0.444325000     0.555675000
      0.805675000     0.444325000     0.555675000
      0.305675000     0.944325000     0.555675000
      0.805675000     0.944325000     0.555675000
      0.055675000     0.305675000     0.444325000
      0.555675000     0.305675000     0.444325000
      0.055675000     0.805675000     0.444325000
      0.555675000     0.805675000     0.444325000
      0.055675000     0.305675000     0.944325000
      0.555675000     0.305675000     0.944325000
      0.055675000     0.805675000     0.944325000
      0.555675000     0.805675000     0.944325000
      0.055675000     0.194325000     0.055675000
      0.555675000     0.194325000     0.055675000
      0.055675000     0.694325000     0.055675000
      0.555675000     0.694325000     0.055675000
      0.055675000     0.194325000     0.555675000
      0.555675000     0.194325000     0.555675000
      0.055675000     0.694325000     0.555675000
      0.555675000     0.694325000     0.555675000
      0.305675000     0.305675000     0.194325000
      0.805675000     0.305675000     0.194325000
      0.305675000     0.805675000     0.194325000
      0.805675000     0.805675000     0.194325000
      0.305675000     0.305675000     0.694325000
      0.805675000     0.305675000     0.694325000
      0.305675000     0.805675000     0.694325000
      0.805675000     0.805675000     0.694325000
      0.194325000     0.444325000     0.444325000
      0.694325000     0.444325000     0.444325000
      0.194325000     0.944325000     0.444325000
      0.694325000     0.944325000     0.444325000
      0.194325000     0.444325000     0.944325000
      0.694325000     0.444325000     0.944325000
      0.194325000     0.944325000     0.944325000
      0.694325000     0.944325000     0.944325000
      0.319325000     0.430675000     0.319325000
      0.819325000     0.430675000     0.319325000
      0.319325000     0.930675000     0.319325000
      0.819325000     0.930675000     0.319325000
      0.319325000     0.430675000     0.819325000
      0.819325000     0.430675000     0.819325000
      0.319325000     0.930675000     0.819325000
      0.819325000     0.930675000     0.819325000
      0.430675000     0.180675000     0.180675000
      0.930675000     0.180675000     0.180675000
      0.430675000     0.680675000     0.180675000
      0.930675000     0.680675000     0.180675000
      0.430675000     0.180675000     0.680675000
      0.930675000     0.180675000     0.680675000
      0.430675000     0.680675000     0.680675000
      0.930675000     0.680675000     0.680675000
      0.069325000     0.069325000     0.430675000
      0.569325000     0.069325000     0.430675000
      0.069325000     0.569325000     0.430675000
      0.569325000     0.569325000     0.430675000
      0.069325000     0.069325000     0.930675000
      0.569325000     0.069325000     0.930675000
      0.069325000     0.569325000     0.930675000
      0.569325000     0.569325000     0.930675000
      0.069325000     0.430675000     0.069325000
      0.569325000     0.430675000     0.069325000
      0.069325000     0.930675000     0.069325000
      0.569325000     0.930675000     0.069325000
      0.069325000     0.430675000     0.569325000
      0.569325000     0.430675000     0.569325000
      0.069325000     0.930675000     0.569325000
      0.569325000     0.930675000     0.569325000
      0.319325000     0.319325000     0.430675000
      0.819325000     0.319325000     0.430675000
      0.319325000     0.819325000     0.430675000
      0.819325000     0.819325000     0.430675000
      0.319325000     0.319325000     0.930675000
      0.819325000     0.319325000     0.930675000
      0.319325000     0.819325000     0.930675000
      0.819325000     0.819325000     0.930675000
      0.305675000     0.194325000     0.305675000
      0.805675000     0.194325000     0.305675000
      0.305675000     0.694325000     0.305675000
      0.805675000     0.694325000     0.305675000
      0.305675000     0.194325000     0.805675000
      0.805675000     0.194325000     0.805675000
      0.305675000     0.694325000     0.805675000
      0.805675000     0.694325000     0.805675000
      0.055675000     0.055675000     0.194325000
      0.555675000     0.055675000     0.194325000
      0.055675000     0.555675000     0.194325000
      0.555675000     0.555675000     0.194325000
      0.055675000     0.055675000     0.694325000
      0.555675000     0.055675000     0.694325000
      0.055675000     0.555675000     0.694325000
      0.555675000     0.555675000     0.694325000
      0.194325000     0.305675000     0.305675000
      0.694325000     0.305675000     0.305675000
      0.194325000     0.805675000     0.305675000
      0.694325000     0.805675000     0.305675000
      0.194325000     0.305675000     0.805675000
      0.694325000     0.305675000     0.805675000
      0.194325000     0.805675000     0.805675000
      0.694325000     0.805675000     0.805675000
      0.444325000     0.194325000     0.444325000
      0.944325000     0.194325000     0.444325000
      0.444325000     0.694325000     0.444325000
      0.944325000     0.694325000     0.444325000
      0.444325000     0.194325000     0.944325000
      0.944325000     0.194325000     0.944325000
      0.444325000     0.694325000     0.944325000
      0.944325000     0.694325000     0.944325000
      0.430675000     0.069325000     0.069325000
      0.930675000     0.069325000     0.069325000
      0.430675000     0.569325000     0.069325000
      0.930675000     0.569325000     0.069325000
      0.430675000     0.069325000     0.569325000
      0.930675000     0.069325000     0.569325000
      0.430675000     0.569325000     0.569325000
      0.930675000     0.569325000     0.569325000
      0.180675000     0.430675000     0.180675000
      0.680675000     0.430675000     0.180675000
      0.180675000     0.930675000     0.180675000
      0.680675000     0.930675000     0.180675000
      0.180675000     0.430675000     0.680675000
      0.680675000     0.430675000     0.680675000
      0.180675000     0.930675000     0.680675000
      0.680675000     0.930675000     0.680675000
      0.430675000     0.319325000     0.319325000
      0.930675000     0.319325000     0.319325000
      0.430675000     0.819325000     0.319325000
      0.930675000     0.819325000     0.319325000
      0.430675000     0.319325000     0.819325000
      0.930675000     0.319325000     0.819325000
      0.430675000     0.819325000     0.819325000
      0.930675000     0.819325000     0.819325000
      0.194325000     0.055675000     0.055675000
      0.694325000     0.055675000     0.055675000
      0.194325000     0.555675000     0.055675000
      0.694325000     0.555675000     0.055675000
      0.194325000     0.055675000     0.555675000
      0.694325000     0.055675000     0.555675000
      0.194325000     0.555675000     0.555675000
      0.694325000     0.555675000     0.555675000
      0.444325000     0.444325000     0.194325000
      0.944325000     0.444325000     0.194325000
      0.444325000     0.944325000     0.194325000
      0.944325000     0.944325000     0.194325000
      0.444325000     0.444325000     0.694325000
      0.944325000     0.444325000     0.694325000
      0.444325000     0.944325000     0.694325000
      0.944325000     0.944325000     0.694325000
      0.180675000     0.180675000     0.430675000
      0.680675000     0.180675000     0.430675000
      0.180675000     0.680675000     0.430675000
      0.680675000     0.680675000     0.430675000
      0.180675000     0.180675000     0.930675000
      0.680675000     0.180675000     0.930675000
      0.180675000     0.680675000     0.930675000
      0.680675000     0.680675000     0.930675000
      0.500000000     0.500000000     1.000000000
      0.500000000     0.500000000     0.500000000
      1.000000000     0.750000000     0.250000000
      0.500000000     0.250000000     0.750000000
      0.750000000     0.250000000     0.500000000
      0.250000000     0.250000000     1.000000000
      0.750000000     1.000000000     0.250000000
      0.750000000     0.500000000     0.250000000
      0.625000000     0.125000000     0.625000000
      0.625000000     0.625000000     0.625000000
      0.125000000     0.625000000     0.625000000
      0.875000000     0.625000000     0.375000000
      0.875000000     0.625000000     0.875000000
      0.375000000     0.875000000     0.125000000
      0.875000000     0.375000000     0.625000000
      0.375000000     0.375000000     0.625000000
