Na12 S2 O4
1.0
   5.7141089439392090    0.0000000000000000    1.9187444448471072
   0.0168271835161529    6.1092698099162330   -0.0027036594692621
   0.0000000000000000    0.0000000000000000    9.4248151779174805
Na S O
12 2 4
direct
   0.4700470864772796    0.1862106472253799    0.6308264136314392 Na
   0.5791400074958801    0.7587673664093018    0.3465758562088013 Na
   0.0749139860272408    0.8097254037857056    0.6707731485366821 Na
   0.0848531275987625    0.1954365521669388    0.3252921402454376 Na
   0.4123202562332154    0.3093408346176147    0.0012566279619932 Na
   0.5751866102218628    0.6448218226432800    0.6708002686500549 Na
   0.0784513875842094    0.6951179504394531    0.3469883501529694 Na
   0.9127375483512880    0.1451711356639862    0.0004594326019287 Na
   0.9697924852371217    0.2668563723564148    0.6310914754867554 Na
   0.7663556933403015    0.6873491406440734    0.0406642220914364 Na
   0.2672235071659088    0.7668924927711487    0.0410715341567993 Na
   0.5848511457443237    0.2598854899406433    0.3255304992198944 Na
   0.6522582769393921    0.9767649769783020    0.8364735245704652 S
   0.1527010500431061    0.4764992594718933    0.8355766534805298 S
   0.9266207218170166    0.9395815730094910    0.1921910196542740 O
   0.7829530239105225    0.4403665661811829    0.4794345498085022 O
   0.4270859062671661    0.5142945051193237    0.1917912811040879 O
   0.2829130589962005    0.0132163036614656    0.4803217351436615 O
