Na12 S2 O4
1.0
   5.6751799925255062   -0.0011747582523180    1.9059345481902104
   0.0153367478315164    6.0627969677020195   -0.0023294149560422
   0.0009518743374942    0.0005458059304029    9.3590589470406336
Na S O
12 2 4
direct
   0.4827508233147277    0.1876034550879225    0.6253354571241543 Na
   0.5735020466364399    0.7692732090463930    0.3443004948774593 Na
   0.0724866564530971    0.8056582554507811    0.6703024105513827 Na
   0.0789745059322320    0.1838141162868253    0.3279718531654820 Na
   0.4076250202715984    0.3066139538691698    0.0012399968941672 Na
   0.5718678349368180    0.6481020657395636    0.6704122993584810 Na
   0.0737097418275825    0.6849756794010486    0.3442665369792615 Na
   0.9077656571984287    0.1476317431132878    0.0011831186565556 Na
   0.9825931476520415    0.2663895967445580    0.6253505836036449 Na
   0.7727248690360525    0.6878009577002776    0.0469045486710724 Na
   0.2723862866045792    0.7663073028453284    0.0469127096482739 Na
   0.5792343135964548    0.2695956270356163    0.3277803335928149 Na
   0.6525366606359829    0.9769044550026230    0.8357999507900566 S
   0.1524517431379807    0.4768869805624929    0.8360883973051779 S
   0.9285087914181345    0.9347587662741378    0.1896117314009507 O
   0.7811763484220011    0.4351434700997033    0.4820759851382029 O
   0.4290839001048621    0.5199044084974001    0.1894400850288998 O
   0.2810265310354441    0.0189343548769051    0.4821422416388705 O
