Zn8 Fe16 O32
1.0
   8.4355047299999999    0.0000000000000000    0.0000000000000005
   0.0000000000000014    8.4355047299999999    0.0000000000000005
   0.0000000000000000    0.0000000000000000    8.4355047299999999
Zn Fe O
8 16 32
direct
   0.0000000000000000    0.0000000000000000    0.5000000000000000 Zn2+
   0.2500000000000000    0.2500000000000000    0.7500000000000000 Zn2+
   0.0000000000000000    0.5000000000000000   -0.0000000000000000 Zn2+
   0.7500000000000000    0.2500000000000000    0.2500000000000000 Zn2+
   0.2500000000000000    0.7500000000000000    0.2500000000000000 Zn2+
   0.7500000000000000    0.7500000000000000    0.7499999999999999 Zn2+
   0.5000000000000000    0.0000000000000000   -0.0000000000000000 Zn2+
   0.5000000000000000    0.5000000000000000    0.5000000000000000 Zn2+
   0.1250000000000000    0.1250000000000000    0.1250000000000000 Fe3+
   0.1250000000000000    0.3750000000000000    0.3750000000000000 Fe3+
   0.8750000000000000    0.3750000000000000    0.6250000000000000 Fe3+
   0.8750000000000000    0.1250000000000000    0.8749999999999999 Fe3+
   0.1250000000000000    0.8750000000000000    0.8749999999999999 Fe3+
   0.1250000000000000    0.6250000000000000    0.6250000000000000 Fe3+
   0.8750000000000000    0.6250000000000000    0.3750000000000000 Fe3+
   0.8750000000000000    0.8750000000000000    0.1250000000000000 Fe3+
   0.3750000000000000    0.1250000000000000    0.3750000000000000 Fe3+
   0.6250000000000000    0.8750000000000000    0.3750000000000000 Fe3+
   0.6250000000000000    0.1250000000000000    0.6250000000000000 Fe3+
   0.3750000000000000    0.8750000000000000    0.6250000000000000 Fe3+
   0.3750000000000000    0.3750000000000000    0.1250000000000000 Fe3+
   0.3750000000000000    0.6250000000000000    0.8749999999999999 Fe3+
   0.6250000000000000    0.6250000000000000    0.1250000000000000 Fe3+
   0.6250000000000000    0.3750000000000000    0.8749999999999999 Fe3+
   0.1153311100000000    0.1153311100000000    0.8846688900000000 O2-
   0.1346688900000000    0.3653311100000000    0.1346688899999999 O2-
   0.8846688900000000    0.3846688900000000    0.3846688899999999 O2-
   0.8653311099999998    0.1346688900000000    0.6346688899999999 O2-
   0.1153311100000000    0.8846688900000000    0.1153311099999999 O2-
   0.1346688900000000    0.6346688900000000    0.8653311100000000 O2-
   0.8846688900000000    0.6153311100000000    0.6153311100000000 O2-
   0.8653311099999998    0.8653311099999998    0.3653311100000000 O2-
   0.8846688900000000    0.1153311100000000    0.1153311100000000 O2-
   0.1346688899999999    0.1346688900000000    0.3653311100000000 O2-
   0.3846688899999999    0.8846688900000000    0.3846688900000000 O2-
   0.6346688899999999    0.8653311099999998    0.1346688900000000 O2-
   0.6153311100000000    0.8846688900000000    0.6153311100000000 O2-
   0.3653311100000000    0.8653311099999998    0.8653311100000000 O2-
   0.3653311100000000    0.1346688899999999    0.1346688900000000 O2-
   0.3846688900000000    0.3846688899999999    0.8846688900000000 O2-
   0.6153311100000000    0.6153311100000000    0.8846688900000000 O2-
   0.8653311099999998    0.3653311100000000    0.8653311100000000 O2-
   0.3846688900000000    0.1153311100000000    0.6153311100000000 O2-
   0.1153311100000000    0.6153311100000000    0.3846688899999999 O2-
   0.3653311100000000    0.6346688900000000    0.6346688899999999 O2-
   0.6153311100000000    0.3846688900000000    0.1153311100000000 O2-
   0.6346688899999999    0.3653311100000000    0.6346688900000000 O2-
   0.6346688900000000    0.6346688899999999    0.3653311100000000 O2-
   0.6346688900000000    0.1346688900000000    0.8653311100000000 O2-
   0.3653311100000000    0.3653311100000000    0.3653311100000000 O2-
   0.3846688899999999    0.6153311100000000    0.1153311100000000 O2-
   0.1153311100000000    0.3846688900000000    0.6153311100000000 O2-
   0.8653311099999998    0.6346688899999999    0.1346688900000000 O2-
   0.8846688900000000    0.8846688900000000    0.8846688900000000 O2-
   0.6153311100000000    0.1153311100000000    0.3846688899999999 O2-
   0.1346688899999999    0.8653311099999998    0.6346688900000000 O2-
