SQS ZnMn conc=0.5 from bestsqs4.out
1.0
     11.929606000     0.000000000     0.000000000
      5.964803000    10.331337036     0.000000000
      5.964803000     3.443779012     9.740487510
Fe Mn O Zn
32 8 64 8
Direct
      0.562500000     0.062500000     0.312500000
      0.062500000     0.062500000     0.312500000
      0.562500000     0.562500000     0.312500000
      0.062500000     0.562500000     0.312500000
      0.562500000     0.062500000     0.812500000
      0.062500000     0.062500000     0.812500000
      0.562500000     0.562500000     0.812500000
      0.062500000     0.562500000     0.812500000
      0.562500000     0.062500000     0.062500000
      0.062500000     0.062500000     0.062500000
      0.562500000     0.562500000     0.062500000
      0.062500000     0.562500000     0.062500000
      0.562500000     0.062500000     0.562500000
      0.062500000     0.062500000     0.562500000
      0.562500000     0.562500000     0.562500000
      0.062500000     0.562500000     0.562500000
      0.312500000     0.062500000     0.062500000
      0.812500000     0.062500000     0.062500000
      0.312500000     0.562500000     0.062500000
      0.812500000     0.562500000     0.062500000
      0.312500000     0.062500000     0.562500000
      0.812500000     0.062500000     0.562500000
      0.312500000     0.562500000     0.562500000
      0.812500000     0.562500000     0.562500000
      0.562500000     0.312500000     0.062500000
      0.062500000     0.312500000     0.062500000
      0.562500000     0.812500000     0.062500000
      0.062500000     0.812500000     0.062500000
      0.562500000     0.312500000     0.562500000
      0.062500000     0.312500000     0.562500000
      0.562500000     0.812500000     0.562500000
      0.062500000     0.812500000     0.562500000
      0.875000000     0.875000000     0.375000000
      0.375000000     0.875000000     0.375000000
      0.875000000     0.875000000     0.875000000
      0.375000000     0.875000000     0.875000000
      0.250000000     0.750000000     0.750000000
      0.750000000     0.750000000     0.750000000
      0.250000000     0.250000000     0.750000000
      0.750000000     0.250000000     0.750000000
      0.182665500     0.452003500     0.182665500
      0.682665500     0.452003500     0.182665500
      0.182665500     0.952003500     0.182665500
      0.682665500     0.952003500     0.182665500
      0.182665500     0.452003500     0.682665500
      0.682665500     0.452003500     0.682665500
      0.182665500     0.952003500     0.682665500
      0.682665500     0.952003500     0.682665500
      0.182665500     0.182665500     0.182665500
      0.682665500     0.182665500     0.182665500
      0.182665500     0.682665500     0.182665500
      0.682665500     0.682665500     0.182665500
      0.182665500     0.182665500     0.682665500
      0.682665500     0.182665500     0.682665500
      0.182665500     0.682665500     0.682665500
      0.682665500     0.682665500     0.682665500
      0.452003500     0.182665500     0.182665500
      0.952003500     0.182665500     0.182665500
      0.452003500     0.682665500     0.182665500
      0.952003500     0.682665500     0.182665500
      0.452003500     0.182665500     0.682665500
      0.952003500     0.182665500     0.682665500
      0.452003500     0.682665500     0.682665500
      0.952003500     0.682665500     0.682665500
      0.442334500     0.442334500     0.172996500
      0.942334500     0.442334500     0.172996500
      0.442334500     0.942334500     0.172996500
      0.942334500     0.942334500     0.172996500
      0.442334500     0.442334500     0.672996500
      0.942334500     0.442334500     0.672996500
      0.442334500     0.942334500     0.672996500
      0.942334500     0.942334500     0.672996500
      0.172996500     0.442334500     0.442334500
      0.672996500     0.442334500     0.442334500
      0.172996500     0.942334500     0.442334500
      0.672996500     0.942334500     0.442334500
      0.172996500     0.442334500     0.942334500
      0.672996500     0.442334500     0.942334500
      0.172996500     0.942334500     0.942334500
      0.672996500     0.942334500     0.942334500
      0.442334500     0.442334500     0.442334500
      0.942334500     0.442334500     0.442334500
      0.442334500     0.942334500     0.442334500
      0.942334500     0.942334500     0.442334500
      0.442334500     0.442334500     0.942334500
      0.942334500     0.442334500     0.942334500
      0.442334500     0.942334500     0.942334500
      0.942334500     0.942334500     0.942334500
      0.182665500     0.182665500     0.452003500
      0.682665500     0.182665500     0.452003500
      0.182665500     0.682665500     0.452003500
      0.682665500     0.682665500     0.452003500
      0.182665500     0.182665500     0.952003500
      0.682665500     0.182665500     0.952003500
      0.182665500     0.682665500     0.952003500
      0.682665500     0.682665500     0.952003500
      0.442334500     0.172996500     0.442334500
      0.942334500     0.172996500     0.442334500
      0.442334500     0.672996500     0.442334500
      0.942334500     0.672996500     0.442334500
      0.442334500     0.172996500     0.942334500
      0.942334500     0.172996500     0.942334500
      0.442334500     0.672996500     0.942334500
      0.942334500     0.672996500     0.942334500
      0.875000000     0.375000000     0.375000000
      0.375000000     0.375000000     0.375000000
      0.875000000     0.375000000     0.875000000
      0.375000000     0.375000000     0.875000000
      0.250000000     0.750000000     0.250000000
      0.750000000     0.750000000     0.250000000
      0.250000000     0.250000000     0.250000000
      0.750000000     0.250000000     0.250000000
