Na1 Ti1 Si2 O7
1.0
   5.0276223955199351   -0.0010831033623212    1.9988458175494666
   2.1196844623510396    4.5614462544172820    1.9989813538443351
   0.0015995518068881    0.0010279849525786    7.2811830858482649
Na Ti Si O
1 1 2 7
direct
   0.6211841437697319    0.5191147257027940    0.9824016501813334 Na
   0.3639701411898056    0.2618616783716130    0.7547484115783847 Ti
   0.7768249473203301    0.6750658528995653    0.5142391232768566 Si
   0.9431597144558778    0.8407980490294157    0.0185074112326924 Si
   0.5858027692990889    0.4842227468354692    0.5998496045177476 O
   0.1314947969689472    0.0288852242715983    0.9502814924862542 O
   0.5855422810832553    0.9713071196938792    0.6004574629070888 O
   0.6356178802643025    0.0295629493810061    0.9488917006474135 O
   0.1319641348085999    0.5328682030379308    0.9494782611078332 O
   0.8589943428148834    0.7571182921868547    0.2689093090895689 O
   0.0728933980435951    0.4838274888366071    0.6007133988449777 O
