Mn5 Zn3 Fe16 O32
1.0
   8.3810689347513225   -0.0000000308089112    0.0040274931480480
  -0.0000000308138271    8.3785123706734304    0.0000000550942932
   0.0040274931542517    0.0000000551084055    8.3810689180674558
Fe Mn O Zn
16 5 32 3
direct
   0.3763687820511776    0.3744587997256246    0.6250432297070301 Fe
   0.3756024848303094    0.1279116157661167    0.8756024653530207 Fe
   0.1248481793622434    0.1274815902286646    0.6248482067464263 Fe
   0.8749567765942013    0.3744587864370958    0.1236312344015151 Fe
   0.6236312267520460    0.3744587934660454    0.3749567615487845 Fe
   0.6243975349139271    0.1279115832305494    0.1243975281286537 Fe
   0.1271612521698136    0.6217734206165697    0.1235261653790222 Fe
   0.3764738564099017    0.6217734151557864    0.3728387319871497 Fe
   0.1267241601291217    0.8772943098937075    0.3732758300667037 Fe
   0.8732758277794384    0.8772943195274202    0.6267242011005059 Fe
   0.8728387264674867    0.6217734447151534    0.8764738079880624 Fe
   0.6238224002582080    0.8749113405721543    0.8761776593687428 Fe
   0.8751518052662361    0.1274815772740598    0.3751518242890880 Fe
   0.3761776702897074    0.8749113532361701    0.1238223543857243 Fe
   0.1250432369483453    0.3744588042824245    0.8763687800569855 Fe
   0.6235261909788825    0.6217734134550331    0.6271612337538696 Fe
   0.9999999763836096    0.9981115290886874    1.0000000355636209 Mn
   1.0000000194632928    0.4982177831296385    0.5000000353454026 Mn
   0.4999999719211894    0.9981115382967561    0.5000000051383487 Mn
   0.2506618724124267    0.7557070649710019    0.7506618324865645 Mn
   0.7493381336853722    0.7557070482149476    0.2493381258473648 Mn
   0.8865935109685879    0.6164551183410787    0.1172209329801828 O
   0.1161883325591404    0.8978820320279546    0.6161883827465551 O
   0.6182479762725454    0.1084088468949102    0.8817520086300195 O
   0.3836940725283269    0.3819663877283797    0.3825081929988322 O
   0.3537806797198506    0.1305094734438312    0.6323300035203249 O
   0.6332921659929329    0.3657942251551782    0.1332921365986263 O
   0.8522503846402277    0.8671246197465525    0.8687313642025124 O
   0.1345539101989031    0.6382731716523352    0.3654461067375792 O
   0.3682433411884855    0.6413964603514447    0.1317566880144300 O
   0.1329474212134969    0.3530353245398198    0.6329474570742445 O
   0.6462193285664208    0.1305094623071132    0.3676699952461710 O
   0.8903402502088761    0.1200152548399681    0.6096597389419512 O
   0.6069942331877825    0.8826721824757580    0.1069942576907040 O
   0.1134064844839680    0.6164551044576330    0.8827790540099081 O
   0.1174918274669148    0.3819663720151024    0.1163059185291232 O
   0.6172209217607185    0.6164551302557850    0.3865935521401130 O
   0.3930057196448150    0.8826721648834146    0.8930057141633413 O
   0.6312686114182856    0.8671246211342399    0.6477496098456180 O
   0.8670525281152854    0.3530353307637553    0.3670525671539128 O
   0.1323300199617861    0.1305094623081751    0.8537806730416186 O
   0.1477496181381952    0.8671245858718882    0.1312686057343416 O
   0.6317566737979996    0.6413964644136063    0.8682432961135342 O
   0.6163059133571605    0.3819663775202711    0.6174918081091236 O
   0.1096597649656786    0.1200152886681801    0.3903402424145161 O
   0.3827790547861635    0.6164551291879888    0.6134064656289044 O
   0.8825081784269727    0.3819663818662984    0.8836940814132626 O
   0.8676699767069305    0.1305094787904964    0.1462193244893809 O
   0.3687313900052930    0.8671245940777764    0.3522503931326764 O
   0.8654460983750997    0.6382732006531975    0.6345539031362337 O
   0.3817520024275684    0.1084088611633423    0.1182479897366797 O
   0.8838116474830841    0.8978820234488972    0.3838116647120640 O
   0.3667078498302790    0.3657941981129324    0.8667078681667651 O
   0.5000000046646955    0.5020698507088999    1.0000000079136460 Zn
   0.2482824972168023    0.2463856439879304    0.2517174838315507 Zn
   0.7517175084878898    0.2463856288163175    0.7482824878040650 Zn
