Ti2 H4 O6
1.0
   4.2834581363999815   -0.0228001465993845    2.1564603298664475
   2.6087630542230205    4.2669503277214247    0.2125831723545300
   0.0135396452118516    0.1304327542532715    5.2744035835122975
Ti H O
2 4 6
direct
   0.2850891486309108    0.9765356024463944    0.9720130579998713 Ti
   0.2885887753822568    0.4766310656498974    0.4720092894492584 Ti
   0.6627236070250097    0.9392925199720937    0.2258896635940867 H
   0.8813215034861090    0.5115440571425526    0.2275129603756270 H
   0.8991361242176786    0.0115830788543919    0.7283739172071159 H
   0.6967206607690726    0.4391649105766589    0.7260290877552452 H
   0.4462397548726723    0.0935500660452230    0.2169328491511020 O
   0.4322575683256684    0.2261546750976114    0.7208188256968402 O
   0.7658070613778057    0.5945147898458036    0.7166194539011007 O
   0.1431917220560648    0.7263317129154686    0.2200114039917280 O
   0.8078181091312933    0.3629810015132859    0.2207439549670855 O
   0.1295144524606544    0.8640249945154430    0.7206511021502525 O
