Mn2 Zn6 Fe16 O32
1.0
   8.4432570665950273    0.0013077802271982   -0.0039980875390459
  -0.0040006099159584    8.4432562928508563   -0.0039980928325852
   0.0013069678196748    0.0013077844892821    8.4432579825730159
Mn Zn Fe O
2 6 16 32
direct
   0.1229760319996355    0.1229760343458906    0.1229760281544527 Mn
   0.8770239720285071    0.8770239770652417    0.8770239798221903 Mn
   0.1256838868288109    0.6256678540486407    0.6256678861410916 Zn
   0.6256678955481956    0.1256839112991920    0.6256678819285632 Zn
   0.6256679240447514    0.6256678484919178    0.1256839032646175 Zn
   0.3743320957096054    0.8743160674320050    0.3743320983330556 Zn
   0.8743160958843437    0.3743321209806872    0.3743321078785929 Zn
   0.3743321233057703    0.3743321150086029    0.8743161037194446 Zn
   0.4999999710148314    0.5000000350601186    0.4999999832170391 Fe
   0.4990188598097969    0.2506829450066802    0.2506828999787938 Fe
   0.2506829236605042    0.4990188305689963    0.2506828992421495 Fe
   0.2506829242813133    0.2506829372350913    0.4990188716076813 Fe
   0.7493170358965476    0.5009811613547624    0.7493170450247182 Fe
   0.5009811543155105    0.7493170819894615    0.7493170743371973 Fe
   0.7493170523413668    0.7493170745628881    0.5009811634306618 Fe
  -0.0000000187973708   -0.0000000009265292    0.5000000237025448 Fe
   0.5000000201184168   -0.0000000218384797    0.0000000160163723 Fe
   0.0000000001483990    0.5000000212397533   -0.0000000387007324 Fe
   0.7458724517241342   -0.0000000052174821    0.2541275965039562 Fe
   0.2541275939888973    0.7458724094422894   -0.0000000107226377 Fe
   0.0000000086144490    0.2541276064638779    0.7458724269876157 Fe
   0.2541275574019358   -0.0000000012940777    0.7458724278327090 Fe
   0.7458724480692517    0.2541275702966751   -0.0000000013633992 Fe
  -0.0000000110014948    0.7458724244069707    0.2541276241983147 Fe
   0.2405270802676590    0.5076195135316649    0.0089713897661222 O
   0.0089713977410651    0.2405271042819060    0.5076195342510581 O
   0.5076195693134579    0.0089714041740917    0.2405270962331885 O
   0.4923804200255163    0.7594729317267049    0.9910286520900857 O
   0.7594728835231437    0.9910285916073934    0.4923804450944146 O
   0.9910285855837420    0.4923804639042922    0.7594728818192812 O
   0.7594729569843669    0.4923804579101742    0.9910286480251693 O
   0.9910286187386828    0.7594728998467918    0.4923804225935425 O
   0.4923804682642321    0.9910285549395677    0.7594728829680087 O
   0.5076195282906828    0.2405271042063106    0.0089713985952644 O
   0.2405270926466866    0.0089714066092054    0.5076195530974508 O
   0.0089713855391181    0.5076195252025339    0.2405270834234292 O
   0.7395287276094323    0.2395104885547540    0.2395104746554175 O
   0.2395104886500606    0.7395287480995244    0.2395104947125035 O
   0.2395105098248552    0.2395105184925426    0.7395287775367531 O
   0.7604895377838787    0.2604712160380255    0.7604894914588760 O
   0.2604712335259882    0.7604895069038716    0.7604894766420612 O
   0.7604894995984739    0.7604895305528887    0.2604712214498115 O
   0.0118340662302547    0.0118340757453383    0.7396957263016716 O
   0.7396956749597847    0.0118340996370345    0.0118340957360960 O
   0.0118340870343103    0.7396957367898362    0.0118340925458172 O
   0.9881659442174494    0.9881659080755041    0.2603042657126808 O
   0.9881659528027347    0.2603042784001449    0.9881659549993123 O
   0.2603042559080215    0.9881659312128995    0.9881658790630303 O
   0.5097285180748351    0.7409201849505336    0.5097285108771007 O
   0.5097285432999459    0.5097285300730082    0.7409202134423699 O
   0.7409202023324163    0.5097285293859843    0.5097285396867113 O
   0.2590798317427326    0.4902714804435029    0.4902714875652132 O
   0.4902714812967372    0.4902714845306937    0.2590798114890971 O
   0.4902715128765021    0.2590798183721253    0.4902715094639479 O
   0.7417961817370324    0.7417962283463405    0.7417962016779095 O
   0.2582038016134526    0.2582038030658890    0.2582038072816742 O
