Tb2 H2 I2
1.0
   3.9028640066524556   -0.0010583603359071    0.0005311529347083
   0.0085681951042269    3.9022624773621306    0.0057264722739333
  -0.0005195792937666   -0.0017360286209032    9.8853724483777281
Tb H I
2 2 2
direct
   0.5668480178322972    0.5644271888817678    0.6520662428326814 Tb
   0.0670044462361047    0.0651965060883800    0.4010554243576953 Tb
   0.0667721319351917    0.5649346689278170    0.5261100256411851 H
   0.5670337258644300    0.0647362381296529    0.5260937980936943 H
   0.5670478750198792    0.5654440726870203    0.2218420573555490 I
   0.0669783834225570    0.0640106862673716    0.8308628879966261 I
