Tb2 H2 I2
1.0
   3.8569210552007931   -0.0006498864017887    0.0006579027878458
   0.0088633632609538    3.8559494112469861    0.0060539608165850
  -0.0001899758601630   -0.0008481880657561    9.8536645407302625
Tb H I
2 2 2
direct
   0.5668484665636547    0.5643946106044317    0.6511720486764087 Tb
   0.0670316568393825    0.0651004030221423    0.4010160167644676 Tb
   0.0666859828735554    0.5651482564917870    0.5262554318972034 H
   0.5670520952377127    0.0646635121685039    0.5262875903244103 H
   0.5670045649549882    0.5652079082558962    0.2275202232598240 I
   0.0670618158475184    0.0642346706433405    0.8257791243272699 I
