Ti2 H4 O6
1.0
   4.3088715269140856   -0.0194727431929951    2.1708473275971052
   2.6453565074160035    4.2950771006650568    0.1795686288133499
   0.0055191374724586    0.0929034188394541    5.3257792073524213
Ti H O
2 4 6
direct
   0.2794897508137834    0.9709113705002315    0.9786574026998888 Ti
   0.2932640936876606    0.4711660679104153    0.4785176266051319 Ti
   0.6675932330386689    0.9235270203872252    0.2194039288989678 H
   0.8770379026873071    0.5253688086846076    0.2288016932334496 H
   0.8872353138745882    0.0253205125653676    0.7307757659795706 H
   0.7156536493196115    0.4224049410286642    0.7195930438755174 H
   0.4461923305227454    0.0872279836930972    0.2197947188461704 O
   0.4415211879178708    0.2290882361523898    0.7186383279953392 O
   0.7695866561574237    0.5878065512497577    0.7189940503150667 O
   0.1329386159308327    0.7295455978049096    0.2178881833208305 O
   0.8052847783690842    0.3746048426482316    0.2181789264985990 O
   0.1226109543801745    0.8753365222027460    0.7183618814283692 O
