P3 H4 O9
1.0
   4.9385654329506332   -0.0008449121675305   -2.4239969711389895
  -1.9880865658073605    5.7908208005501178   -1.0560274072955960
   0.0055237990731156    0.0104082319438201    7.2805373228035588
P H O
3 4 9
direct
   0.8082190251943876    0.8502318958335102    0.6189127512009596 P
   0.3721010258839518    0.0935423002439682    0.9955522728223223 P
   0.7810972486953494    0.8530964176039921    0.2129166947325136 P
   0.6714770034748622    0.4053807616607336    0.0082859576213098 H
   0.1343991331958823    0.1334646092237850    0.2469663491941792 H
   0.7041298365652748    0.6563499113638149    0.8165370394242257 H
   0.6601038174798544    0.1239544076471743    0.7264632645366151 H
   0.6551361195480406    0.6555514164978464    0.6655229688966456 O
   0.1383061908286666    0.9200111718327013    0.7645599364839133 O
   0.7730332582075420    0.6678472513264923    0.0517958650091450 O
   0.7567436709353195    0.7532935582881212    0.3899208030902708 O
   0.2526891755273558    0.2130474646448696    0.1061799307135051 O
   0.0407435735807392    0.0689652693096819    0.3283023117527061 O
   0.5020751847859795    0.9202081959633249    0.1105901449894609 O
   0.5891530790338186    0.2307549448249823    0.9464586581864192 O
   0.7113664410152674    0.0622283828976274    0.6203220307984105 O
